c F-1 G1-2 G2-3 p-6 q-7 r-10
c
p cnf 12 28
1 0
-1 2 0
-1 3 0
-2 -3 1 0
-2 4 0
-2 5 0
-4 -5 2 0
6 5 0
-7 4 0
-4 -6 7 0
7 5 0
-6 5 0
-5 -7 6 0
-3 8 0
-3 9 0
-8 -9 3 0
6 8 0
-10 8 0
-8 -6 10 0
-11 9 0
-12 9 0
-9 11 12 0
-11 7 0
-11 -10 0
-7 10 11 0
-12 6 0
-12 -7 0
-6 7 12 0
